Version identifier: 22.1.1.0 | 2022-11-28 | 9160aff4d
CPXPARAM_ClockType                               1
CPXPARAM_Read_DataCheck                          1
CPXPARAM_Threads                                 1
CPXPARAM_TimeLimit                               7200
CPXPARAM_MIP_Tolerances_AbsMIPGap                0
CPXPARAM_MIP_Tolerances_MIPGap                   0
CPXPARAM_MIP_Tolerances_Integrality              0
Tried aggregator 2 times.
MIP Presolve eliminated 19159 rows and 1127 columns.
MIP Presolve modified 32286 coefficients.
Aggregator did 15456 substitutions.
Reduced MIP has 160501 rows, 77176 columns, and 503343 nonzeros.
Reduced MIP has 77176 binaries, 0 generals, 0 SOSs, and 0 indicators.
Presolve time = 1.05 sec. (656.40 ticks)
Found incumbent of value -115450.000000 after 1.84 sec. (1166.93 ticks)
Probing fixed 875 vars, tightened 0 bounds.
Probing changed sense of 31 constraints.
Probing time = 1.37 sec. (658.62 ticks)
Tried aggregator 4 times.
Detecting symmetries...
MIP Presolve eliminated 6730 rows and 2519 columns.
MIP Presolve modified 295 coefficients.
Aggregator did 404 substitutions.
Reduced MIP has 153367 rows, 74253 columns, and 484281 nonzeros.
Reduced MIP has 74253 binaries, 0 generals, 0 SOSs, and 0 indicators.
Presolve time = 1.94 sec. (1131.25 ticks)
Probing time = 0.05 sec. (21.24 ticks)
Clique table members: 303052.
MIP emphasis: balance optimality and feasibility.
MIP search method: dynamic search.
Parallel mode: none, using 1 thread.
Root relaxation solution time = 632.25 sec. (181838.29 ticks)

        Nodes                                         Cuts/
   Node  Left     Objective  IInf  Best Integer    Best Bound    ItCnt     Gap

*     0+    0                      -113158.0000    70644.0000           162.43%
      0     0    34799.8889 36533  -113158.0000    34799.8889   219477  130.75%
      0     0    32929.4508 36726  -113158.0000 Cliques: 6792   571697  129.10%
      0     0    29126.4131 29965  -113158.0000    Cuts: 9964   788621  125.74%
      0     0    27607.3649 29062  -113158.0000    Cuts: 9751   957035  124.40%
*     0+    0                         9110.0000    27607.3649           203.04%
*     0+    0                         9674.0000    27607.3649           185.38%
*     0+    0                         9782.0000    27607.3649           182.23%
      0     0        cutoff           9782.0000    27607.3649   957035  182.23%

GUB cover cuts applied:  2
Clique cuts applied:  9932
Implied bound cuts applied:  111
Flow cuts applied:  19
Mixed integer rounding cuts applied:  27
Zero-half cuts applied:  10396
Lift and project cuts applied:  2

Root node processing (before b&c):
  Real time             = 7200.15 sec. (2356445.94 ticks)
Sequential b&c:
  Real time             =    0.00 sec. (0.00 ticks)
                          ------------
Total (root+branch&cut) = 7200.15 sec. (2356445.94 ticks)
Solution is feasible.

---------------------
@@@ MIP_time_limit_feasible
>>> Benchmark cnf_cbpmas_prop_23_20123_2.cnf_0.00000000.sat.cnf k 5 OPT 9782 TimeCost 7438.826509714127 TimeSolve 7225.064870119095 TimeRead 0.02437281608581543 TimeTrans 213.73726677894592
